
Gurobi 9.5.2 (mac64[arm]) logging started Fri Apr 28 19:04:42 2023

Set parameter LogFile to value "Java/output/iterative_model_2_machine/scenario_seed_3_nJob_40_machineCount_2/mip_increment_1/log.txt"
Gurobi Optimizer version 9.5.2 build v9.5.2rc0 (mac64[arm])
Thread count: 8 physical cores, 8 logical processors, using up to 8 threads
Optimize a model with 2063 rows, 12024 columns and 140910 nonzeros
Model fingerprint: 0x5292ef54
Variable types: 0 continuous, 12024 integer (12024 binary)
Coefficient statistics:
  Matrix range     [1e+00, 2e+02]
  Objective range  [2e+01, 3e+06]
  Bounds range     [1e+00, 1e+00]
  RHS range        [1e+00, 1e+00]
Found heuristic solution: objective 1.833931e+07
Presolve removed 304 rows and 1919 columns
Presolve time: 0.18s
Presolved: 1759 rows, 10105 columns, 117051 nonzeros
Variable types: 0 continuous, 10105 integer (10105 binary)
Found heuristic solution: objective 1.533454e+07

Root relaxation: objective 7.814392e+03, 1632 iterations, 0.07 seconds (0.18 work units)

    Nodes    |    Current Node    |     Objective Bounds      |     Work
 Expl Unexpl |  Obj  Depth IntInf | Incumbent    BestBd   Gap | It/Node Time

     0     0 7814.39196    0  113 1.5335e+07 7814.39196   100%     -    0s
H    0     0                    3255056.0000 7814.39196   100%     -    0s
H    0     0                    3117376.0000 7814.39196   100%     -    0s
H    0     0                    2341312.0000 7814.39196   100%     -    0s
     0     0 7921.91928    0  139 2341312.00 7921.91928   100%     -    0s
H    0     0                    1420704.0000 7921.91928  99.4%     -    0s
H    0     0                    394608.00000 7952.78744  98.0%     -    0s
H    0     0                    381120.00000 7952.78744  97.9%     -    0s
     0     0 7952.78744    0  141 381120.000 7952.78744  97.9%     -    0s
     0     0 7955.35171    0  142 381120.000 7955.35171  97.9%     -    0s
     0     0 8059.71928    0  150 381120.000 8059.71928  97.9%     -    0s
H    0     0                    268992.00000 8059.71928  97.0%     -    1s
     0     0 8059.71928    0  113 268992.000 8059.71928  97.0%     -    1s
H    0     0                    188832.00000 8059.71928  95.7%     -    1s
     0     0 8059.71928    0  149 188832.000 8059.71928  95.7%     -    1s
H    0     0                    127776.00000 8059.71928  93.7%     -    1s
H    0     0                    80704.000000 8059.71928  90.0%     -    1s
     0     0 8101.66935    0  154 80704.0000 8101.66935  90.0%     -    1s
     0     0 8104.40099    0  165 80704.0000 8104.40099  90.0%     -    1s
     0     0 8104.65553    0  163 80704.0000 8104.65553  90.0%     -    1s
     0     0 8104.68121    0  161 80704.0000 8104.68121  90.0%     -    1s
     0     0 8297.27848    0  167 80704.0000 8297.27848  89.7%     -    1s
H    0     0                    80688.000000 8297.27848  89.7%     -    1s
     0     0 8374.45972    0  153 80688.0000 8374.45972  89.6%     -    1s
     0     0 8375.30531    0  155 80688.0000 8375.30531  89.6%     -    1s
     0     0 8851.54382    0  168 80688.0000 8851.54382  89.0%     -    1s
H    0     0                    16864.000000 8851.54382  47.5%     -    1s
     0     0 9830.85068    0  174 16864.0000 9830.85068  41.7%     -    1s
     0     0 9907.60955    0  168 16864.0000 9907.60955  41.2%     -    1s
     0     0 9910.63129    0  171 16864.0000 9910.63129  41.2%     -    1s
     0     0 12154.4209    0  191 16864.0000 12154.4209  27.9%     -    2s
     0     0 12154.4209    0  105 16864.0000 12154.4209  27.9%     -    2s
     0     0 12154.4209    0  142 16864.0000 12154.4209  27.9%     -    2s
     0     0 12961.7241    0  160 16864.0000 12961.7241  23.1%     -    2s
     0     0 13122.6658    0  166 16864.0000 13122.6658  22.2%     -    2s
     0     0 13168.9466    0  170 16864.0000 13168.9466  21.9%     -    2s
     0     0 13177.5411    0  175 16864.0000 13177.5411  21.9%     -    2s
     0     0 13447.3580    0  190 16864.0000 13447.3580  20.3%     -    2s
     0     0 13488.2583    0  186 16864.0000 13488.2583  20.0%     -    2s
     0     0 13514.5706    0  191 16864.0000 13514.5706  19.9%     -    2s
     0     0 13514.9298    0  191 16864.0000 13514.9298  19.9%     -    2s
     0     0 13784.8713    0  181 16864.0000 13784.8713  18.3%     -    2s
     0     0 13981.5670    0  192 16864.0000 13981.5670  17.1%     -    2s
     0     0 14003.7164    0  192 16864.0000 14003.7164  17.0%     -    2s
     0     0 14004.9339    0  194 16864.0000 14004.9339  17.0%     -    2s
     0     0 14248.8832    0  210 16864.0000 14248.8832  15.5%     -    2s
H    0     0                    16832.000000 14248.8832  15.3%     -    2s
     0     0 14257.8569    0  199 16832.0000 14257.8569  15.3%     -    2s
     0     0 14258.3540    0  208 16832.0000 14258.3540  15.3%     -    2s
     0     0 14352.7263    0  207 16832.0000 14352.7263  14.7%     -    2s
     0     0 14421.2325    0  189 16832.0000 14421.2325  14.3%     -    2s
     0     0 14423.1242    0  195 16832.0000 14423.1242  14.3%     -    2s
     0     0 14479.8718    0  193 16832.0000 14479.8718  14.0%     -    2s
     0     0 14480.4027    0  196 16832.0000 14480.4027  14.0%     -    2s
     0     0 14533.8690    0  200 16832.0000 14533.8690  13.7%     -    2s
H    0     0                    15152.000000 14533.8690  4.08%     -    2s
     0     0 14562.3723    0  211 15152.0000 14562.3723  3.89%     -    2s
     0     0 14565.0602    0  206 15152.0000 14565.0602  3.87%     -    2s
     0     0 14581.2072    0  202 15152.0000 14581.2072  3.77%     -    2s
     0     0 14581.2072    0   97 15152.0000 14581.2072  3.77%     -    2s
     0     0 14581.2072    0  148 15152.0000 14581.2072  3.77%     -    2s
     0     0 14581.2072    0  151 15152.0000 14581.2072  3.77%     -    2s
     0     0 14698.0983    0  136 15152.0000 14698.0983  3.00%     -    2s
     0     0 14798.0703    0  150 15152.0000 14798.0703  2.34%     -    2s
     0     0 14855.7891    0  154 15152.0000 14855.7891  1.95%     -    2s
     0     0 14861.3389    0  150 15152.0000 14861.3389  1.92%     -    2s
     0     0 14906.3943    0  144 15152.0000 14906.3943  1.62%     -    2s
     0     0     cutoff    0      15152.0000 15152.0000  0.00%     -    2s

Explored 1 nodes (18003 simplex iterations) in 2.76 seconds (4.40 work units)
Thread count was 8 (of 8 available processors)

Solution count 10: 15152 16832 16864 ... 394608

Optimal solution found (tolerance 1.00e-04)
Best objective 1.515200000000e+04, best bound 1.515200000000e+04, gap 0.0000%

Gurobi 9.5.2 (mac64[arm]) logging started Fri Apr 28 19:04:45 2023

Set parameter LogFile to value "Java/output/iterative_model_2_machine/scenario_seed_3_nJob_40_machineCount_2/mip_increment_1/log.txt"
Gurobi Optimizer version 9.5.2 build v9.5.2rc0 (mac64[arm])
Thread count: 8 physical cores, 8 logical processors, using up to 8 threads
Optimize a model with 2057 rows, 8356 columns and 93508 nonzeros
Model fingerprint: 0x6b9ba175
Variable types: 0 continuous, 8356 integer (8356 binary)
Coefficient statistics:
  Matrix range     [1e+00, 2e+02]
  Objective range  [2e+02, 4e+05]
  Bounds range     [1e+00, 1e+00]
  RHS range        [1e+00, 1e+00]
Found heuristic solution: objective 1211260.0000
Presolve removed 612 rows and 1013 columns
Presolve time: 0.12s
Presolved: 1445 rows, 7343 columns, 81700 nonzeros
Variable types: 0 continuous, 7343 integer (7341 binary)
Found heuristic solution: objective 573492.00000

Root relaxation: objective 3.593658e+03, 618 iterations, 0.02 seconds (0.03 work units)

    Nodes    |    Current Node    |     Objective Bounds      |     Work
 Expl Unexpl |  Obj  Depth IntInf | Incumbent    BestBd   Gap | It/Node Time

     0     0 3593.65791    0   65 573492.000 3593.65791  99.4%     -    0s
H    0     0                    466648.00000 3593.65791  99.2%     -    0s
H    0     0                    75136.000000 3593.65791  95.2%     -    0s
H    0     0                    68872.000000 3593.65791  94.8%     -    0s
H    0     0                    19552.000000 3593.65791  81.6%     -    0s
     0     0 3622.26099    0  104 19552.0000 3622.26099  81.5%     -    0s
H    0     0                    11152.000000 3622.26099  67.5%     -    0s
     0     0 3622.26099    0   63 11152.0000 3622.26099  67.5%     -    0s
H    0     0                    7940.0000000 3622.26099  54.4%     -    0s
H    0     0                    4624.0000000 3622.26099  21.7%     -    0s
     0     0 3625.93304    0   89 4624.00000 3625.93304  21.6%     -    0s
H    0     0                    3704.0000000 3625.93304  2.11%     -    0s
     0     0 3626.69995    0   95 3704.00000 3626.69995  2.09%     -    0s
     0     0 3653.68647    0   87 3704.00000 3653.68647  1.36%     -    0s
     0     0 3653.68647    0   35 3704.00000 3653.68647  1.36%     -    0s
H    0     0                    3696.0000000 3653.68647  1.14%     -    0s
     0     0 3661.16667    0   75 3696.00000 3661.16667  0.94%     -    0s
H    0     0                    3668.0000000 3661.16667  0.19%     -    0s
     0     0          -    0      3668.00000 3668.00000  0.00%     -    0s

Cutting planes:
  Gomory: 6
  Cover: 3
  Clique: 8
  MIR: 3
  GUB cover: 6
  Zero half: 1
  RLT: 1

Explored 1 nodes (3403 simplex iterations) in 0.61 seconds (0.92 work units)
Thread count was 8 (of 8 available processors)

Solution count 10: 3668 3696 3704 ... 466648

Optimal solution found (tolerance 1.00e-04)
Best objective 3.668000000000e+03, best bound 3.668000000000e+03, gap 0.0000%

Gurobi 9.5.2 (mac64[arm]) logging started Fri Apr 28 19:04:46 2023

Set parameter LogFile to value "Java/output/iterative_model_2_machine/scenario_seed_3_nJob_40_machineCount_2/mip_increment_1/log.txt"
Gurobi Optimizer version 9.5.2 build v9.5.2rc0 (mac64[arm])
Thread count: 8 physical cores, 8 logical processors, using up to 8 threads
Optimize a model with 2078 rows, 8288 columns and 92231 nonzeros
Model fingerprint: 0xaf4b9a1d
Variable types: 0 continuous, 8288 integer (8288 binary)
Coefficient statistics:
  Matrix range     [1e+00, 2e+02]
  Objective range  [5e+01, 6e+04]
  Bounds range     [1e+00, 1e+00]
  RHS range        [1e+00, 1e+00]
Found heuristic solution: objective 208707.00000
Presolve removed 1014 rows and 1803 columns
Presolve time: 0.10s
Presolved: 1064 rows, 6485 columns, 71372 nonzeros
Variable types: 0 continuous, 6485 integer (6481 binary)
Found heuristic solution: objective 148298.00000

Root relaxation: objective 2.800671e+03, 2736 iterations, 0.09 seconds (0.18 work units)

    Nodes    |    Current Node    |     Objective Bounds      |     Work
 Expl Unexpl |  Obj  Depth IntInf | Incumbent    BestBd   Gap | It/Node Time

     0     0 2800.67090    0   83 148298.000 2800.67090  98.1%     -    0s
H    0     0                    120026.00000 2800.67090  97.7%     -    0s
H    0     0                    88986.000000 2800.67090  96.9%     -    0s
H    0     0                    86062.000000 2800.67090  96.7%     -    0s
H    0     0                    46999.000000 2800.67090  94.0%     -    0s
H    0     0                    46998.000000 3082.36132  93.4%     -    0s
     0     0 3082.36132    0  155 46998.0000 3082.36132  93.4%     -    0s
H    0     0                    28025.000000 3082.36132  89.0%     -    0s
     0     0 3082.36132    0  156 28025.0000 3082.36132  89.0%     -    0s
     0     0 3152.39304    0  189 28025.0000 3152.39304  88.8%     -    0s
H    0     0                    27323.000000 3152.39304  88.5%     -    0s
H    0     0                    20899.000000 3152.39304  84.9%     -    0s
     0     0 3174.77025    0  178 20899.0000 3174.77025  84.8%     -    0s
     0     0 3183.01169    0  185 20899.0000 3183.01169  84.8%     -    0s
     0     0 3183.32338    0  182 20899.0000 3183.32338  84.8%     -    0s
     0     0 3183.41492    0  186 20899.0000 3183.41492  84.8%     -    0s
     0     0 3183.41492    0  186 20899.0000 3183.41492  84.8%     -    0s
     0     0 3351.74102    0  186 20899.0000 3351.74102  84.0%     -    0s
H    0     0                    20394.000000 3351.74102  83.6%     -    0s
H    0     0                    12966.000000 3390.05457  73.9%     -    0s
     0     0 3390.05457    0  189 12966.0000 3390.05457  73.9%     -    0s
     0     0 3419.41150    0  205 12966.0000 3419.41150  73.6%     -    1s
     0     0 3421.65231    0  214 12966.0000 3421.65231  73.6%     -    1s
     0     0 3421.65231    0  214 12966.0000 3421.65231  73.6%     -    1s
H    0     0                    6701.0000000 3516.71655  47.5%     -    1s
     0     0 3516.71655    0  225 6701.00000 3516.71655  47.5%     -    1s
     0     0 3570.22072    0  190 6701.00000 3570.22072  46.7%     -    1s
     0     0 3608.48434    0  204 6701.00000 3608.48434  46.2%     -    1s
     0     0 3610.16830    0  210 6701.00000 3610.16830  46.1%     -    1s
     0     0 3610.16830    0  215 6701.00000 3610.16830  46.1%     -    1s
     0     0 3640.80021    0  198 6701.00000 3640.80021  45.7%     -    1s
H    0     0                    5642.0000000 3640.80021  35.5%     -    1s
     0     0 3656.53008    0  198 5642.00000 3656.53008  35.2%     -    1s
     0     0 3656.75155    0  202 5642.00000 3656.75155  35.2%     -    1s
     0     0 3691.26085    0  226 5642.00000 3691.26085  34.6%     -    1s
     0     0 3691.26085    0   87 5642.00000 3691.26085  34.6%     -    1s
H    0     0                    5391.0000000 3691.26085  31.5%     -    2s
     0     0 3691.26085    0  175 5391.00000 3691.26085  31.5%     -    2s
     0     0 3691.26085    0  178 5391.00000 3691.26085  31.5%     -    2s
     0     0 3691.26085    0  201 5391.00000 3691.26085  31.5%     -    2s
     0     0 3691.26085    0  211 5391.00000 3691.26085  31.5%     -    2s
     0     0 3691.26085    0  220 5391.00000 3691.26085  31.5%     -    2s
     0     0 3691.26085    0  226 5391.00000 3691.26085  31.5%     -    2s
     0     0 3692.16156    0  226 5391.00000 3692.16156  31.5%     -    2s
     0     0 3692.17038    0  227 5391.00000 3692.17038  31.5%     -    2s
H    0     0                    5390.0000000 3692.17038  31.5%     -    2s
     0     0 3708.02735    0  221 5390.00000 3708.02735  31.2%     -    2s
     0     0 3709.54034    0  223 5390.00000 3709.54034  31.2%     -    2s
     0     0 3709.54034    0  230 5390.00000 3709.54034  31.2%     -    2s
     0     0 3745.50415    0  244 5390.00000 3745.50415  30.5%     -    2s
     0     0 3752.83195    0  255 5390.00000 3752.83195  30.4%     -    2s
     0     0 3753.54017    0  233 5390.00000 3753.54017  30.4%     -    2s
H    0     0                    5111.0000000 3753.54017  26.6%     -    2s
     0     0 3755.39714    0  245 5111.00000 3755.39714  26.5%     -    2s
     0     0 3755.39714    0  245 5111.00000 3755.39714  26.5%     -    2s
     0     0 3772.21422    0  247 5111.00000 3772.21422  26.2%     -    2s
H    0     0                    5000.0000000 3772.21422  24.6%     -    2s
     0     0 3778.55174    0  229 5000.00000 3778.55174  24.4%     -    2s
     0     0 3779.92766    0  270 5000.00000 3779.92766  24.4%     -    2s
     0     0 3780.33969    0  283 5000.00000 3780.33969  24.4%     -    2s
     0     0 3782.27216    0  286 5000.00000 3782.27216  24.4%     -    3s
     0     0 3782.56112    0  284 5000.00000 3782.56112  24.3%     -    3s
     0     0 3783.46640    0  274 5000.00000 3783.46640  24.3%     -    3s
     0     0 3783.46640    0  249 5000.00000 3783.46640  24.3%     -    3s
H    0     0                    4999.0000000 3783.93222  24.3%     -    3s
     0     2 3783.93222    0  248 4999.00000 3783.93222  24.3%     -    3s
H   33    36                    4022.0000000 3826.00000  4.87%   918    4s
H   78    24                    3838.0000000 3826.00000  0.31%   443    4s
H   82    24                    3826.0000000 3826.00000  0.00%   430    4s

Cutting planes:
  Gomory: 3
  Cover: 9
  Clique: 38
  MIR: 81
  StrongCG: 39
  GUB cover: 84
  Zero half: 17
  Mod-K: 1
  RLT: 17

Explored 90 nodes (59792 simplex iterations) in 4.16 seconds (8.52 work units)
Thread count was 8 (of 8 available processors)

Solution count 10: 3826 3838 4022 ... 6701

Optimal solution found (tolerance 1.00e-04)
Best objective 3.826000000000e+03, best bound 3.826000000000e+03, gap 0.0000%

Gurobi 9.5.2 (mac64[arm]) logging started Fri Apr 28 19:04:50 2023

Set parameter LogFile to value "Java/output/iterative_model_2_machine/scenario_seed_3_nJob_40_machineCount_2/mip_increment_1/log.txt"
Gurobi Optimizer version 9.5.2 build v9.5.2rc0 (mac64[arm])
Thread count: 8 physical cores, 8 logical processors, using up to 8 threads
Optimize a model with 2190 rows, 37742 columns and 431237 nonzeros
Model fingerprint: 0x310e5f3f
Variable types: 0 continuous, 37742 integer (37742 binary)
Coefficient statistics:
  Matrix range     [1e+00, 2e+02]
  Objective range  [1e+00, 3e+06]
  Bounds range     [1e+00, 1e+00]
  RHS range        [1e+00, 1e+00]

Warning: Completing partial solution with 37629 unfixed non-continuous variables out of 37742
User MIP start produced solution with objective 21480 (0.03s)
Loaded user MIP start with objective 21480

Presolve removed 122 rows and 5072 columns
Presolve time: 0.46s
Presolved: 2068 rows, 32670 columns, 373411 nonzeros
Variable types: 0 continuous, 32670 integer (32664 binary)

Root relaxation: objective 1.205215e+04, 21023 iterations, 2.77 seconds (6.63 work units)

    Nodes    |    Current Node    |     Objective Bounds      |     Work
 Expl Unexpl |  Obj  Depth IntInf | Incumbent    BestBd   Gap | It/Node Time

     0     0 12052.1501    0  432 21480.0000 12052.1501  43.9%     -    3s
H    0     0                    21400.000000 12052.1501  43.7%     -    3s
H    0     0                    20632.000000 12052.1501  41.6%     -    3s
H    0     0                    20586.000000 12052.1501  41.5%     -    3s
     0     0 12205.9038    0  463 20586.0000 12205.9038  40.7%     -    5s
     0     0 14168.0467    0  364 20586.0000 14168.0467  31.2%     -    8s
H    0     0                    20504.000000 14168.0467  30.9%     -    8s
H    0     0                    20337.000000 14168.0467  30.3%     -    8s
H    0     0                    20329.000000 14168.0467  30.3%     -    9s
     0     0 15312.9449    0  499 20329.0000 15312.9449  24.7%     -   10s
H    0     0                    20272.000000 15312.9449  24.5%     -   10s
     0     0 15346.3265    0  516 20272.0000 15346.3265  24.3%     -   10s
     0     0 15346.8669    0  502 20272.0000 15346.8669  24.3%     -   10s
     0     0 15346.8669    0  508 20272.0000 15346.8669  24.3%     -   10s
     0     0 16494.9308    0  526 20272.0000 16494.9308  18.6%     -   12s
H    0     0                    20268.000000 16494.9308  18.6%     -   12s
     0     0 16503.1497    0  524 20268.0000 16503.1497  18.6%     -   13s
     0     0 16503.1757    0  522 20268.0000 16503.1757  18.6%     -   13s
     0     0 16910.3261    0  565 20268.0000 16910.3261  16.6%     -   15s
     0     0 16945.1077    0  554 20268.0000 16945.1077  16.4%     -   16s
     0     0 16961.1636    0  576 20268.0000 16961.1636  16.3%     -   16s
     0     0 16963.4633    0  592 20268.0000 16963.4633  16.3%     -   16s
     0     0 16963.9457    0  585 20268.0000 16963.9457  16.3%     -   16s
     0     0 17460.4743    0  630 20268.0000 17460.4743  13.9%     -   20s
H    0     0                    20265.000000 17460.4743  13.8%     -   20s
     0     0 17820.2532    0  630 20265.0000 17820.2532  12.1%     -   22s
     0     0 17940.2411    0  611 20265.0000 17940.2411  11.5%     -   22s
     0     0 18005.0538    0  655 20265.0000 18005.0538  11.2%     -   23s
     0     0 18032.3210    0  610 20265.0000 18032.3210  11.0%     -   23s
     0     0 18032.5175    0  614 20265.0000 18032.5175  11.0%     -   23s
     0     0 18435.4477    0  664 20265.0000 18435.4477  9.03%     -   25s
     0     0 18465.2570    0  683 20265.0000 18465.2570  8.88%     -   25s
     0     0 18467.7660    0  648 20265.0000 18467.7660  8.87%     -   26s
     0     0 18468.1014    0  668 20265.0000 18468.1014  8.87%     -   26s
     0     0 18712.8354    0  629 20265.0000 18712.8354  7.66%     -   27s
     0     0 18712.8354    0  377 20265.0000 18712.8354  7.66%     -   28s
     0     0 18712.8354    0  520 20265.0000 18712.8354  7.66%     -   30s
     0     0 18712.8354    0  581 20265.0000 18712.8354  7.66%     -   30s
     0     0 18712.8354    0  638 20265.0000 18712.8354  7.66%     -   31s
     0     0 18763.3289    0  620 20265.0000 18763.3289  7.41%     -   31s
     0     0 18770.5539    0  620 20265.0000 18770.5539  7.37%     -   32s
     0     0 18774.4986    0  604 20265.0000 18774.4986  7.36%     -   32s
     0     0 18774.8220    0  610 20265.0000 18774.8220  7.35%     -   32s
     0     0 18776.1132    0  599 20265.0000 18776.1132  7.35%     -   32s
     0     0 18776.7943    0  597 20265.0000 18776.7943  7.34%     -   32s
     0     0 18776.9337    0  606 20265.0000 18776.9337  7.34%     -   32s
     0     0 18823.8014    0  644 20265.0000 18823.8014  7.11%     -   32s
     0     0 18843.8267    0  633 20265.0000 18843.8267  7.01%     -   32s
     0     0 18843.8601    0  622 20265.0000 18843.8601  7.01%     -   32s
     0     0 18932.7009    0  695 20265.0000 18932.7009  6.57%     -   33s
     0     0 18971.8141    0  683 20265.0000 18971.8141  6.38%     -   34s
     0     0 18978.5878    0  694 20265.0000 18978.5878  6.35%     -   35s
     0     0 18978.7360    0  700 20265.0000 18978.7360  6.35%     -   35s
     0     0 19054.2255    0  676 20265.0000 19054.2255  5.97%     -   36s
     0     0 19061.1796    0  680 20265.0000 19061.1796  5.94%     -   36s
     0     0 19063.6555    0  699 20265.0000 19063.6555  5.93%     -   36s
     0     0 19063.6893    0  687 20265.0000 19063.6893  5.93%     -   36s
     0     0 19084.9691    0  671 20265.0000 19084.9691  5.82%     -   36s
     0     0 19086.1487    0  708 20265.0000 19086.1487  5.82%     -   37s
     0     0 19113.2150    0  715 20265.0000 19113.2150  5.68%     -   37s
     0     0 19114.5892    0  670 20265.0000 19114.5892  5.68%     -   37s
     0     0 19117.9168    0  694 20265.0000 19117.9168  5.66%     -   37s
     0     0 19117.9168    0  652 20265.0000 19117.9168  5.66%     -   38s
     0     2 19127.0035    0  652 20265.0000 19127.0035  5.62%     -   39s
     1     4 19332.5318    1  668 20265.0000 19158.5836  5.46%  5201   41s
    21    14 19666.1504    6  367 20265.0000 19666.1504  2.96%  2345   45s
H   31    22                    19975.000000 19666.1504  1.55%  1872   46s
H   33    22                    19942.000000 19666.1504  1.38%  1852   46s
H   34    22                    19918.000000 19666.1504  1.26%  1836   46s
H   36    22                    19917.000000 19666.1504  1.26%  1817   46s
H   66    24                    19721.000000 19667.2840  0.27%  1333   48s
H   73    24                    19720.000000 19667.2840  0.27%  1400   48s
    86    37 19686.0315   10  372 19720.0000 19667.2840  0.27%  1414   50s
H  106    53                    19711.000000 19667.2840  0.22%  1485   51s
H  132    70                    19710.000000 19667.2840  0.22%  1593   53s
H  147    70                    19704.000000 19667.2840  0.19%  1511   54s
   158    65 19699.8680   14  368 19704.0000 19667.2840  0.19%  1555   55s
H  203    70                    19702.000000 19667.2840  0.18%  1544   56s
H  246    84                    19699.000000 19670.2338  0.15%  1528   59s
   261    89 19670.9768    9  319 19699.0000 19670.3136  0.15%  1535   60s
   411   140 19692.9042   13  260 19699.0000 19670.6744  0.14%  1329   65s
H  424   140                    19696.000000 19670.6744  0.13%  1328   65s
   557   160 19692.3172   17  237 19696.0000 19672.3816  0.12%  1259   70s
   788   160 19684.5413   16  211 19696.0000 19677.9789  0.09%  1170   75s
   913   152     cutoff   20      19696.0000 19681.2650  0.07%  1205   80s
   951   146     cutoff   18      19696.0000 19684.6821  0.06%  1221   85s
  1305    59 19695.1414   19   78 19696.0000 19691.4771  0.02%  1067   90s

Cutting planes:
  Cover: 49
  Clique: 167
  MIR: 201
  StrongCG: 137
  GUB cover: 185
  Zero half: 31
  RLT: 16

Explored 1580 nodes (1636351 simplex iterations) in 91.02 seconds (244.30 work units)
Thread count was 8 (of 8 available processors)

Solution count 10: 19696 19699 19702 ... 19918

Optimal solution found (tolerance 1.00e-04)
Best objective 1.969600000000e+04, best bound 1.969600000000e+04, gap 0.0000%
